42520
162,166,179,182,181,180,178,174,173,176,175,186,184,185,141,140,145,147,148,149,150,151,190,187,188,177,189,192,191,193,194,196,195,183,202,201,200,199,198,197,152,153,155,154,146,25,144,143,139,138,142,137,24,23,22,19,11,18,17,9,10,12,13,7,6,8,4,5,2,1,3,16,14,15,20,21,26,33,32,31,30,51,54,55,52,34,35,36,43,53,56,57,60,61,62,59,58,71,69,70,73,72,64,63,65,66,67,68,74,75,76,77,78,79,80,82,81,90,91,89,86,83,84,85,87,92,94,88,98,93,97,96,100,95,50,48,49,47,45,44,42,41,103,46,108,109,110,99,111,107,106,105,104,119,120,121,112,113,101,114,115,116,117,102,156,157,158,159,163,168,167,125,126,122,124,123,39,118,40,38,37,28,27,29,127,128,129,130,131,132,133,134,136,135,171,170,169,172,165,164,160,161,162
